# 48521
param n := 30;
param s := 1;
set E :=  (0,5) (1,2) (1,13) (2,21) (3,7) (3,8) (3,26) (4,14) (5,27) (5,29) (6,10) (7,21) (8,14) (9,27) (10,18) (10,25) (11,26) (11,27) (12,15) (12,17) (12,22) (16,20) (17,19) (20,28) (21,22) (23,25) (24,28) (24,29) (25,29);
